NAME:  test1
TYPE: AGTSP
COMMENT: gtsp tours
DIMENSION:  65
GTSP_SETS: 17
EDGE_WEIGHT_TYPE: EXPLICIT
EDGE_WEIGHT_FORMAT: FULL_MATRIX 
EDGE_WEIGHT_SECTION
999999	0	999999	999999	36779	36779	36771	999999	36815	36815	999999	999999	36787	36787	36779	999999	36813	36813	999999	999999	36780	36780	36772	999999	36803	36803	36803	36795	36792	36792	36792	36784	36806	36806	36806	36798	36817	36817	999999	999999	36788	36788	36788	36780	36819	36819	999999	999999	36802	36802	36802	36794	36801	36801	36801	36793	36795	36795	36795	36787	36785
999999	999999	0	999999	36779	36779	36779	36771	36815	36815	36815	999999	36787	36787	36787	36779	36813	36813	36813	999999	36780	36780	36780	36772	36803	36803	36803	999999	36792	36792	36792	999999	36806	36806	36806	999999	36817	36817	36817	999999	36788	36788	36788	999999	36819	36819	36819	999999	36802	36802	36802	999999	36801	36801	36801	999999	36795	36795	36795	999999	36785
999999	999999	999999	0	36779	36779	36779	36779	36815	36815	36815	36815	36787	36787	36787	36787	36813	36813	36813	36813	36780	36780	36780	36780	36803	36803	36803	36803	36792	36792	36792	36792	36806	36806	36806	36806	36817	36817	36817	36817	36788	36788	36788	36788	36819	36819	36819	36819	36802	36802	36802	36802	36801	36801	36801	36801	36795	36795	36795	36795	36785
0	999999	999999	999999	36779	36771	999999	999999	36815	36815	36815	36807	36787	36779	999999	999999	36813	36813	36813	36805	36780	36772	999999	999999	36803	36803	36795	999999	36792	36792	36784	999999	36806	36806	36798	999999	36817	36817	36817	36809	36788	36788	36780	999999	36819	36819	36819	36811	36802	36802	36794	999999	36801	36801	36793	999999	36795	36795	36787	999999	36785
36779	36779	36771	999999	999999	0	999999	999999	36811	36811	999999	999999	36790	36790	36790	36782	36813	36813	999999	999999	36781	36781	36773	999999	36808	36808	36808	36800	36786	36786	36778	999999	36815	36815	999999	999999	36815	36815	999999	999999	36800	36800	36800	36792	36824	36824	999999	999999	36809	36809	999999	999999	36811	36811	999999	999999	36806	36806	36806	36798	36774
36779	36779	36779	36771	999999	999999	0	999999	36811	36811	36811	999999	36790	36790	36790	999999	36813	36813	36813	999999	36781	36781	36781	36773	36808	36808	36808	999999	36786	36786	36786	36778	36815	36815	36815	999999	36815	36815	36815	999999	36800	36800	36800	999999	36824	36824	36824	999999	36809	36809	36809	999999	36811	36811	36811	999999	36806	36806	36806	999999	36774
36779	36779	36779	36779	999999	999999	999999	0	36811	36811	36811	36811	36790	36790	36790	36790	36813	36813	36813	36813	36781	36781	36781	36781	36808	36808	36808	36808	36786	36786	36786	36786	36815	36815	36815	36815	36815	36815	36815	36815	36800	36800	36800	36800	36824	36824	36824	36824	36809	36809	36809	36809	36811	36811	36811	36811	36806	36806	36806	36806	36774
36779	36771	999999	999999	0	999999	999999	999999	36811	36811	36811	36803	36790	36790	36782	999999	36813	36813	36813	36805	36781	36773	999999	999999	36808	36808	36800	999999	36786	36778	999999	999999	36815	36815	36815	36807	36815	36815	36815	36807	36800	36800	36792	999999	36824	36824	36824	36816	36809	36809	36809	36801	36811	36811	36811	36803	36806	36806	36798	999999	36774
36815	36815	999999	999999	36811	36811	999999	999999	999999	0	999999	999999	36798	36798	36798	36790	36781	36781	36773	999999	36801	36801	36801	36793	36798	36798	36798	36790	36791	36791	36791	36783	36821	36821	999999	999999	36773	36773	36765	999999	36826	36826	999999	999999	36804	36804	36804	36796	36809	36809	36809	36801	36818	36818	999999	999999	36821	36821	999999	999999	36814
36815	36815	36815	999999	36811	36811	36811	999999	999999	999999	0	999999	36798	36798	36798	999999	36781	36781	36781	36773	36801	36801	36801	999999	36798	36798	36798	999999	36791	36791	36791	999999	36821	36821	36821	999999	36773	36773	36773	36765	36826	36826	36826	999999	36804	36804	36804	999999	36809	36809	36809	999999	36818	36818	36818	999999	36821	36821	36821	999999	36814
36815	36815	36815	36815	36811	36811	36811	36811	999999	999999	999999	0	36798	36798	36798	36798	36781	36781	36781	36781	36801	36801	36801	36801	36798	36798	36798	36798	36791	36791	36791	36791	36821	36821	36821	36821	36773	36773	36773	36773	36826	36826	36826	36826	36804	36804	36804	36804	36809	36809	36809	36809	36818	36818	36818	36818	36821	36821	36821	36821	36814
36815	36815	36815	36807	36811	36811	36811	36803	0	999999	999999	999999	36798	36798	36790	999999	36781	36773	999999	999999	36801	36801	36793	999999	36798	36798	36790	999999	36791	36791	36783	999999	36821	36821	36821	36813	36773	36765	999999	999999	36826	36826	36826	36818	36804	36804	36796	999999	36809	36809	36801	999999	36818	36818	36818	36810	36821	36821	36821	36813	36814
36787	36787	36779	999999	36790	36790	36790	36782	36798	36798	36798	36790	999999	0	999999	999999	36793	36793	36793	36785	36776	36776	36768	999999	36785	36785	36777	999999	36784	36784	36776	999999	36797	36797	36797	36789	36799	36799	36799	36791	36795	36795	36795	36787	36800	36800	36800	36792	36788	36788	36780	999999	36793	36793	36793	36785	36792	36792	36792	36784	36797
36787	36787	36787	36779	36790	36790	36790	999999	36798	36798	36798	999999	999999	999999	0	999999	36793	36793	36793	999999	36776	36776	36776	36768	36785	36785	36785	36777	36784	36784	36784	36776	36797	36797	36797	999999	36799	36799	36799	999999	36795	36795	36795	999999	36800	36800	36800	999999	36788	36788	36788	36780	36793	36793	36793	999999	36792	36792	36792	999999	36797
36787	36787	36787	36787	36790	36790	36790	36790	36798	36798	36798	36798	999999	999999	999999	0	36793	36793	36793	36793	36776	36776	36776	36776	36785	36785	36785	36785	36784	36784	36784	36784	36797	36797	36797	36797	36799	36799	36799	36799	36795	36795	36795	36795	36800	36800	36800	36800	36788	36788	36788	36788	36793	36793	36793	36793	36792	36792	36792	36792	36797
36787	36779	999999	999999	36790	36790	36782	999999	36798	36798	36790	999999	0	999999	999999	999999	36793	36793	36785	999999	36776	36768	999999	999999	36785	36777	999999	999999	36784	36776	999999	999999	36797	36797	36789	999999	36799	36799	36791	999999	36795	36795	36787	999999	36800	36800	36792	999999	36788	36780	999999	999999	36793	36793	36785	999999	36792	36792	36784	999999	36797
36813	36813	999999	999999	36813	36813	999999	999999	36781	36781	36773	999999	36793	36793	36793	36785	999999	0	999999	999999	36800	36800	36800	36792	36786	36786	36778	999999	36796	36796	36796	36788	36810	36810	999999	999999	36777	36777	36769	999999	36819	36819	999999	999999	36789	36789	36789	36781	36797	36797	36797	36789	36807	36807	36807	36799	36811	36811	999999	999999	36818
36813	36813	36813	999999	36813	36813	36813	999999	36781	36781	36781	36773	36793	36793	36793	999999	999999	999999	0	999999	36800	36800	36800	999999	36786	36786	36786	36778	36796	36796	36796	999999	36810	36810	36810	999999	36777	36777	36777	36769	36819	36819	36819	999999	36789	36789	36789	999999	36797	36797	36797	999999	36807	36807	36807	999999	36811	36811	36811	999999	36818
36813	36813	36813	36813	36813	36813	36813	36813	36781	36781	36781	36781	36793	36793	36793	36793	999999	999999	999999	0	36800	36800	36800	36800	36786	36786	36786	36786	36796	36796	36796	36796	36810	36810	36810	36810	36777	36777	36777	36777	36819	36819	36819	36819	36789	36789	36789	36789	36797	36797	36797	36797	36807	36807	36807	36807	36811	36811	36811	36811	36818
36813	36813	36813	36805	36813	36813	36813	36805	36781	36773	999999	999999	36793	36793	36785	999999	0	999999	999999	999999	36800	36800	36792	999999	36786	36778	999999	999999	36796	36796	36788	999999	36810	36810	36810	36802	36777	36769	999999	999999	36819	36819	36819	36811	36789	36789	36781	999999	36797	36797	36789	999999	36807	36807	36799	999999	36811	36811	36811	36803	36818
36780	36780	36772	999999	36781	36781	36773	999999	36801	36801	36801	36793	36776	36776	36768	999999	36800	36800	36800	36792	999999	0	999999	999999	36793	36793	36793	36785	36781	36781	36773	999999	36804	36804	36804	36796	36804	36804	36804	36796	36795	36795	36795	36787	36809	36809	999999	999999	36796	36796	36796	36788	36799	36799	36799	36791	36796	36796	36796	36788	36788
36780	36780	36780	36772	36781	36781	36781	36773	36801	36801	36801	999999	36776	36776	36776	36768	36800	36800	36800	999999	999999	999999	0	999999	36793	36793	36793	999999	36781	36781	36781	36773	36804	36804	36804	999999	36804	36804	36804	999999	36795	36795	36795	999999	36809	36809	36809	999999	36796	36796	36796	999999	36799	36799	36799	999999	36796	36796	36796	999999	36788
36780	36780	36780	36780	36781	36781	36781	36781	36801	36801	36801	36801	36776	36776	36776	36776	36800	36800	36800	36800	999999	999999	999999	0	36793	36793	36793	36793	36781	36781	36781	36781	36804	36804	36804	36804	36804	36804	36804	36804	36795	36795	36795	36795	36809	36809	36809	36809	36796	36796	36796	36796	36799	36799	36799	36799	36796	36796	36796	36796	36788
36780	36772	999999	999999	36781	36773	999999	999999	36801	36801	36793	999999	36776	36768	999999	999999	36800	36800	36792	999999	0	999999	999999	999999	36793	36793	36785	999999	36781	36773	999999	999999	36804	36804	36796	999999	36804	36804	36796	999999	36795	36795	36787	999999	36809	36809	36809	36801	36796	36796	36788	999999	36799	36799	36791	999999	36796	36796	36788	999999	36788
36803	36803	36803	36795	36808	36808	36808	36800	36798	36798	36798	36790	36785	36785	36777	999999	36786	36786	36778	999999	36793	36793	36793	36785	999999	0	999999	999999	36798	36798	36798	36790	36790	36790	36790	36782	36795	36795	36795	36787	36802	36802	36802	36794	36782	36782	36774	999999	36778	36778	36770	999999	36788	36788	36780	999999	36793	36793	36793	36785	36815
36803	36803	36803	999999	36808	36808	36808	999999	36798	36798	36798	999999	36785	36785	36785	36777	36786	36786	36786	36778	36793	36793	36793	999999	999999	999999	0	999999	36798	36798	36798	999999	36790	36790	36790	999999	36795	36795	36795	999999	36802	36802	36802	999999	36782	36782	36782	36774	36778	36778	36778	36770	36788	36788	36788	36780	36793	36793	36793	999999	36815
36803	36803	36803	36803	36808	36808	36808	36808	36798	36798	36798	36798	36785	36785	36785	36785	36786	36786	36786	36786	36793	36793	36793	36793	999999	999999	999999	0	36798	36798	36798	36798	36790	36790	36790	36790	36795	36795	36795	36795	36802	36802	36802	36802	36782	36782	36782	36782	36778	36778	36778	36778	36788	36788	36788	36788	36793	36793	36793	36793	36815
36803	36803	36795	999999	36808	36808	36800	999999	36798	36798	36790	999999	36785	36777	999999	999999	36786	36778	999999	999999	36793	36793	36785	999999	0	999999	999999	999999	36798	36798	36790	999999	36790	36790	36782	999999	36795	36795	36787	999999	36802	36802	36794	999999	36782	36774	999999	999999	36778	36770	999999	999999	36788	36780	999999	999999	36793	36793	36785	999999	36815
36792	36792	36792	36784	36786	36786	36778	999999	36791	36791	36791	36783	36784	36784	36776	999999	36796	36796	36796	36788	36781	36781	36773	999999	36798	36798	36798	36790	999999	0	999999	999999	36815	36815	999999	999999	36796	36796	36796	36788	36809	36809	36809	36801	36812	36812	999999	999999	36804	36804	36804	36796	36810	36810	999999	999999	36809	36809	36809	36801	36790
36792	36792	36792	999999	36786	36786	36786	36778	36791	36791	36791	999999	36784	36784	36784	36776	36796	36796	36796	999999	36781	36781	36781	36773	36798	36798	36798	999999	999999	999999	0	999999	36815	36815	36815	999999	36796	36796	36796	999999	36809	36809	36809	999999	36812	36812	36812	999999	36804	36804	36804	999999	36810	36810	36810	999999	36809	36809	36809	999999	36790
36792	36792	36792	36792	36786	36786	36786	36786	36791	36791	36791	36791	36784	36784	36784	36784	36796	36796	36796	36796	36781	36781	36781	36781	36798	36798	36798	36798	999999	999999	999999	0	36815	36815	36815	36815	36796	36796	36796	36796	36809	36809	36809	36809	36812	36812	36812	36812	36804	36804	36804	36804	36810	36810	36810	36810	36809	36809	36809	36809	36790
36792	36792	36784	999999	36786	36778	999999	999999	36791	36791	36783	999999	36784	36776	999999	999999	36796	36796	36788	999999	36781	36773	999999	999999	36798	36798	36790	999999	0	999999	999999	999999	36815	36815	36815	36807	36796	36796	36788	999999	36809	36809	36801	999999	36812	36812	36812	36804	36804	36804	36796	999999	36810	36810	36810	36802	36809	36809	36801	999999	36790
36806	36806	36806	36798	36815	36815	999999	999999	36821	36821	999999	999999	36797	36797	36797	36789	36810	36810	999999	999999	36804	36804	36804	36796	36790	36790	36790	36782	36815	36815	999999	999999	999999	0	999999	999999	36819	36819	999999	999999	36791	36791	36791	36783	36796	36796	36796	36788	36779	36779	36771	999999	36771	36771	36763	999999	36779	36779	36771	999999	36822
36806	36806	36806	999999	36815	36815	36815	999999	36821	36821	36821	999999	36797	36797	36797	999999	36810	36810	36810	999999	36804	36804	36804	999999	36790	36790	36790	999999	36815	36815	36815	999999	999999	999999	0	999999	36819	36819	36819	999999	36791	36791	36791	999999	36796	36796	36796	999999	36779	36779	36779	36771	36771	36771	36771	36763	36779	36779	36779	36771	36822
36806	36806	36806	36806	36815	36815	36815	36815	36821	36821	36821	36821	36797	36797	36797	36797	36810	36810	36810	36810	36804	36804	36804	36804	36790	36790	36790	36790	36815	36815	36815	36815	999999	999999	999999	0	36819	36819	36819	36819	36791	36791	36791	36791	36796	36796	36796	36796	36779	36779	36779	36779	36771	36771	36771	36771	36779	36779	36779	36779	36822
36806	36806	36798	999999	36815	36815	36815	36807	36821	36821	36821	36813	36797	36797	36789	999999	36810	36810	36810	36802	36804	36804	36796	999999	36790	36790	36782	999999	36815	36815	36815	36807	0	999999	999999	999999	36819	36819	36819	36811	36791	36791	36783	999999	36796	36796	36788	999999	36779	36771	999999	999999	36771	36763	999999	999999	36779	36771	999999	999999	36822
36817	36817	999999	999999	36815	36815	999999	999999	36773	36773	36765	999999	36799	36799	36799	36791	36777	36777	36769	999999	36804	36804	36804	36796	36795	36795	36795	36787	36796	36796	36796	36788	36819	36819	999999	999999	999999	0	999999	999999	36826	36826	999999	999999	36799	36799	36799	36791	36807	36807	36807	36799	36816	36816	999999	999999	36820	36820	999999	999999	36819
36817	36817	36817	999999	36815	36815	36815	999999	36773	36773	36773	36765	36799	36799	36799	999999	36777	36777	36777	36769	36804	36804	36804	999999	36795	36795	36795	999999	36796	36796	36796	999999	36819	36819	36819	999999	999999	999999	0	999999	36826	36826	36826	999999	36799	36799	36799	999999	36807	36807	36807	999999	36816	36816	36816	999999	36820	36820	36820	999999	36819
36817	36817	36817	36817	36815	36815	36815	36815	36773	36773	36773	36773	36799	36799	36799	36799	36777	36777	36777	36777	36804	36804	36804	36804	36795	36795	36795	36795	36796	36796	36796	36796	36819	36819	36819	36819	999999	999999	999999	0	36826	36826	36826	36826	36799	36799	36799	36799	36807	36807	36807	36807	36816	36816	36816	36816	36820	36820	36820	36820	36819
36817	36817	36817	36809	36815	36815	36815	36807	36773	36765	999999	999999	36799	36799	36791	999999	36777	36769	999999	999999	36804	36804	36796	999999	36795	36795	36787	999999	36796	36796	36788	999999	36819	36819	36819	36811	0	999999	999999	999999	36826	36826	36826	36818	36799	36799	36791	999999	36807	36807	36799	999999	36816	36816	36816	36808	36820	36820	36820	36812	36819
36788	36788	36788	36780	36800	36800	36800	36792	36826	36826	999999	999999	36795	36795	36795	36787	36819	36819	999999	999999	36795	36795	36795	36787	36802	36802	36802	36794	36809	36809	36809	36801	36791	36791	36791	36783	36826	36826	999999	999999	999999	0	999999	999999	36815	36815	999999	999999	36794	36794	36794	36786	36788	36788	36780	999999	36779	36779	36771	999999	36806
36788	36788	36788	999999	36800	36800	36800	999999	36826	36826	36826	999999	36795	36795	36795	999999	36819	36819	36819	999999	36795	36795	36795	999999	36802	36802	36802	999999	36809	36809	36809	999999	36791	36791	36791	999999	36826	36826	36826	999999	999999	999999	0	999999	36815	36815	36815	999999	36794	36794	36794	999999	36788	36788	36788	36780	36779	36779	36779	36771	36806
36788	36788	36788	36788	36800	36800	36800	36800	36826	36826	36826	36826	36795	36795	36795	36795	36819	36819	36819	36819	36795	36795	36795	36795	36802	36802	36802	36802	36809	36809	36809	36809	36791	36791	36791	36791	36826	36826	36826	36826	999999	999999	999999	0	36815	36815	36815	36815	36794	36794	36794	36794	36788	36788	36788	36788	36779	36779	36779	36779	36806
36788	36788	36780	999999	36800	36800	36792	999999	36826	36826	36826	36818	36795	36795	36787	999999	36819	36819	36819	36811	36795	36795	36787	999999	36802	36802	36794	999999	36809	36809	36801	999999	36791	36791	36783	999999	36826	36826	36826	36818	0	999999	999999	999999	36815	36815	36815	36807	36794	36794	36786	999999	36788	36780	999999	999999	36779	36771	999999	999999	36806
36819	36819	999999	999999	36824	36824	999999	999999	36804	36804	36804	36796	36800	36800	36800	36792	36789	36789	36789	36781	36809	36809	999999	999999	36782	36782	36774	999999	36812	36812	999999	999999	36796	36796	36796	36788	36799	36799	36799	36791	36815	36815	999999	999999	999999	0	999999	999999	36787	36787	36779	999999	36796	36796	36796	36788	36804	36804	36804	36796	36830
36819	36819	36819	999999	36824	36824	36824	999999	36804	36804	36804	999999	36800	36800	36800	999999	36789	36789	36789	999999	36809	36809	36809	999999	36782	36782	36782	36774	36812	36812	36812	999999	36796	36796	36796	999999	36799	36799	36799	999999	36815	36815	36815	999999	999999	999999	0	999999	36787	36787	36787	36779	36796	36796	36796	999999	36804	36804	36804	999999	36830
36819	36819	36819	36819	36824	36824	36824	36824	36804	36804	36804	36804	36800	36800	36800	36800	36789	36789	36789	36789	36809	36809	36809	36809	36782	36782	36782	36782	36812	36812	36812	36812	36796	36796	36796	36796	36799	36799	36799	36799	36815	36815	36815	36815	999999	999999	999999	0	36787	36787	36787	36787	36796	36796	36796	36796	36804	36804	36804	36804	36830
36819	36819	36819	36811	36824	36824	36824	36816	36804	36804	36796	999999	36800	36800	36792	999999	36789	36789	36781	999999	36809	36809	36809	36801	36782	36774	999999	999999	36812	36812	36812	36804	36796	36796	36788	999999	36799	36799	36791	999999	36815	36815	36815	36807	0	999999	999999	999999	36787	36779	999999	999999	36796	36796	36788	999999	36804	36804	36796	999999	36830
36802	36802	36802	36794	36809	36809	999999	999999	36809	36809	36809	36801	36788	36788	36780	999999	36797	36797	36797	36789	36796	36796	36796	36788	36778	36778	36770	999999	36804	36804	36804	36796	36779	36779	36771	999999	36807	36807	36807	36799	36794	36794	36794	36786	36787	36787	36779	999999	999999	0	999999	999999	36777	36777	36769	999999	36783	36783	36775	999999	36816
36802	36802	36802	999999	36809	36809	36809	999999	36809	36809	36809	999999	36788	36788	36788	36780	36797	36797	36797	999999	36796	36796	36796	999999	36778	36778	36778	36770	36804	36804	36804	999999	36779	36779	36779	36771	36807	36807	36807	999999	36794	36794	36794	999999	36787	36787	36787	36779	999999	999999	0	999999	36777	36777	36777	36769	36783	36783	36783	36775	36816
36802	36802	36802	36802	36809	36809	36809	36809	36809	36809	36809	36809	36788	36788	36788	36788	36797	36797	36797	36797	36796	36796	36796	36796	36778	36778	36778	36778	36804	36804	36804	36804	36779	36779	36779	36779	36807	36807	36807	36807	36794	36794	36794	36794	36787	36787	36787	36787	999999	999999	999999	0	36777	36777	36777	36777	36783	36783	36783	36783	36816
36802	36802	36794	999999	36809	36809	36809	36801	36809	36809	36801	999999	36788	36780	999999	999999	36797	36797	36789	999999	36796	36796	36788	999999	36778	36770	999999	999999	36804	36804	36796	999999	36779	36771	999999	999999	36807	36807	36799	999999	36794	36794	36786	999999	36787	36779	999999	999999	0	999999	999999	999999	36777	36769	999999	999999	36783	36775	999999	999999	36816
36801	36801	36801	36793	36811	36811	999999	999999	36818	36818	999999	999999	36793	36793	36793	36785	36807	36807	36807	36799	36799	36799	36799	36791	36788	36788	36780	999999	36810	36810	999999	999999	36771	36771	36763	999999	36816	36816	999999	999999	36788	36788	36780	999999	36796	36796	36796	36788	36777	36777	36769	999999	999999	0	999999	999999	36776	36776	36768	999999	36818
36801	36801	36801	999999	36811	36811	36811	999999	36818	36818	36818	999999	36793	36793	36793	999999	36807	36807	36807	999999	36799	36799	36799	999999	36788	36788	36788	36780	36810	36810	36810	999999	36771	36771	36771	36763	36816	36816	36816	999999	36788	36788	36788	36780	36796	36796	36796	999999	36777	36777	36777	36769	999999	999999	0	999999	36776	36776	36776	36768	36818
36801	36801	36801	36801	36811	36811	36811	36811	36818	36818	36818	36818	36793	36793	36793	36793	36807	36807	36807	36807	36799	36799	36799	36799	36788	36788	36788	36788	36810	36810	36810	36810	36771	36771	36771	36771	36816	36816	36816	36816	36788	36788	36788	36788	36796	36796	36796	36796	36777	36777	36777	36777	999999	999999	999999	0	36776	36776	36776	36776	36818
36801	36801	36793	999999	36811	36811	36811	36803	36818	36818	36818	36810	36793	36793	36785	999999	36807	36807	36799	999999	36799	36799	36791	999999	36788	36780	999999	999999	36810	36810	36810	36802	36771	36763	999999	999999	36816	36816	36816	36808	36788	36780	999999	999999	36796	36796	36788	999999	36777	36769	999999	999999	0	999999	999999	999999	36776	36768	999999	999999	36818
36795	36795	36795	36787	36806	36806	36806	36798	36821	36821	999999	999999	36792	36792	36792	36784	36811	36811	999999	999999	36796	36796	36796	36788	36793	36793	36793	36785	36809	36809	36809	36801	36779	36779	36771	999999	36820	36820	999999	999999	36779	36779	36771	999999	36804	36804	36804	36796	36783	36783	36775	999999	36776	36776	36768	999999	999999	0	999999	999999	36812
36795	36795	36795	999999	36806	36806	36806	999999	36821	36821	36821	999999	36792	36792	36792	999999	36811	36811	36811	999999	36796	36796	36796	999999	36793	36793	36793	999999	36809	36809	36809	999999	36779	36779	36779	36771	36820	36820	36820	999999	36779	36779	36779	36771	36804	36804	36804	999999	36783	36783	36783	36775	36776	36776	36776	36768	999999	999999	0	999999	36812
36795	36795	36795	36795	36806	36806	36806	36806	36821	36821	36821	36821	36792	36792	36792	36792	36811	36811	36811	36811	36796	36796	36796	36796	36793	36793	36793	36793	36809	36809	36809	36809	36779	36779	36779	36779	36820	36820	36820	36820	36779	36779	36779	36779	36804	36804	36804	36804	36783	36783	36783	36783	36776	36776	36776	36776	999999	999999	999999	0	36812
36795	36795	36787	999999	36806	36806	36798	999999	36821	36821	36821	36813	36792	36792	36784	999999	36811	36811	36811	36803	36796	36796	36788	999999	36793	36793	36785	999999	36809	36809	36801	999999	36779	36771	999999	999999	36820	36820	36820	36812	36779	36771	999999	999999	36804	36804	36796	999999	36783	36775	999999	999999	36776	36768	999999	999999	0	999999	999999	999999	36812
36785	36785	36777	999999	36774	36774	36766	999999	36814	36814	999999	999999	36797	36797	36797	36789	36818	36818	999999	999999	36788	36788	36780	999999	36815	36815	999999	999999	36790	36790	36790	36782	36822	36822	999999	999999	36819	36819	999999	999999	36806	36806	36806	36798	36830	36830	999999	999999	36816	36816	999999	999999	36818	36818	999999	999999	36812	36812	999999	999999	999999
GTSP_SET_SECTION:
1 1 2 3 4 -1
2 5 6 7 8 -1
3 9 10 11 12 -1
4 13 14 15 16 -1
5 17 18 19 20 -1
6 21 22 23 24 -1
7 25 26 27 28 -1
8 29 30 31 32 -1
9 33 34 35 36 -1
10 37 38 39 40 -1
11 41 42 43 44 -1
12 45 46 47 48 -1
13 49 50 51 52 -1
14 53 54 55 56 -1
15 57 58 59 60 -1
16 61 62 63 64 -1
17 65 -1
EOF